67
461
288
18
0
196
169
166
23
0
205
0
309
54
27
0
147
27
20
15
29
94
119
54
22
107
0
72
57
204
0
583
76
42
113
24
654
20
48
0
81
0
226
0
14
55
128
63
131
712
0
132
32
287
10
326
42
0
14
28
35
34
125
35
396
46
160
407
26
54
239
98
319
467
185
0
14
30
69
24
148
51
55
57
0
0
47
0
48
29
0
54
89
60
0
17
52
101
66
0
